p cnf 169 612
-1 -33 0
-2 -33 0
1 2 33 0
1 2 -34 0
-1 -2 -34 0
-1 2 34 0
1 -2 34 0
33 -35 0
-3 -35 0
3 -33 35 0
3 -33 -36 0
-3 33 -36 0
3 33 36 0
-3 -33 36 0
35 -37 0
-4 -37 0
4 -35 37 0
4 -35 -38 0
-4 35 -38 0
4 35 38 0
-4 -35 38 0
37 -39 0
-5 -39 0
5 -37 39 0
5 -37 -40 0
-5 37 -40 0
5 37 40 0
-5 -37 40 0
39 -41 0
-6 -41 0
6 -39 41 0
6 -39 -42 0
-6 39 -42 0
6 39 42 0
-6 -39 42 0
41 -43 0
-7 -43 0
7 -41 43 0
7 -41 -44 0
-7 41 -44 0
7 41 44 0
-7 -41 44 0
43 -45 0
-8 -45 0
8 -43 45 0
8 -43 -46 0
-8 43 -46 0
8 43 46 0
-8 -43 46 0
6 -47 0
1 -47 0
-1 -6 47 0
-1 -6 -48 0
1 6 -48 0
1 -6 48 0
-1 6 48 0
-2 -7 49 0
-7 -47 49 0
-2 -47 49 0
2 7 -49 0
7 47 -49 0
2 47 -49 0
7 -49 -50 0
2 -49 -50 0
47 -49 -50 0
-7 49 50 0
-2 49 50 0
-47 49 50 0
-2 -7 -47 50 0
2 7 47 -50 0
-3 -8 51 0
-8 -49 51 0
-3 -49 51 0
3 8 -51 0
8 49 -51 0
3 49 -51 0
8 -51 -52 0
3 -51 -52 0
49 -51 -52 0
-8 51 52 0
-3 51 52 0
-49 51 52 0
-3 -8 -49 52 0
3 8 49 -52 0
4 -53 0
51 -53 0
-4 -51 53 0
-4 -51 -54 0
4 51 -54 0
-4 51 54 0
4 -51 54 0
5 -55 0
53 -55 0
-5 -53 55 0
-5 -53 -56 0
5 53 -56 0
-5 53 56 0
5 -53 56 0
6 -57 0
55 -57 0
-6 -55 57 0
-6 -55 -58 0
6 55 -58 0
-6 55 58 0
6 -55 58 0
7 -59 0
57 -59 0
-7 -57 59 0
-7 -57 -60 0
7 57 -60 0
-7 57 60 0
7 -57 60 0
8 -61 0
59 -61 0
-8 -59 61 0
-8 -59 -62 0
8 59 -62 0
-8 59 62 0
8 -59 62 0
-1 -63 0
-2 -63 0
1 2 63 0
1 2 -64 0
-1 -2 -64 0
-1 2 64 0
1 -2 64 0
63 -65 0
-3 -65 0
3 -63 65 0
3 -63 -66 0
-3 63 -66 0
3 63 66 0
-3 -63 66 0
65 -67 0
-4 -67 0
4 -65 67 0
4 -65 -68 0
-4 65 -68 0
4 65 68 0
-4 -65 68 0
67 -69 0
-5 -69 0
5 -67 69 0
5 -67 -70 0
-5 67 -70 0
5 67 70 0
-5 -67 70 0
69 -71 0
-48 -71 0
48 -69 71 0
48 -69 -72 0
-48 69 -72 0
48 69 72 0
-48 -69 72 0
71 -73 0
-50 -73 0
50 -71 73 0
50 -71 -74 0
-50 71 -74 0
50 71 74 0
-50 -71 74 0
73 -75 0
-52 -75 0
52 -73 75 0
52 -73 -76 0
-52 73 -76 0
52 73 76 0
-52 -73 76 0
75 -77 0
-54 -77 0
54 -75 77 0
54 -75 -78 0
-54 75 -78 0
54 75 78 0
-54 -75 78 0
77 -79 0
-56 -79 0
56 -77 79 0
56 -77 -80 0
-56 77 -80 0
56 77 80 0
-56 -77 80 0
79 -81 0
-58 -81 0
58 -79 81 0
58 -79 -82 0
-58 79 -82 0
58 79 82 0
-58 -79 82 0
81 -83 0
-60 -83 0
60 -81 83 0
60 -81 -84 0
-60 81 -84 0
60 81 84 0
-60 -81 84 0
83 -85 0
-62 -85 0
62 -83 85 0
62 -83 -86 0
-62 83 -86 0
62 83 86 0
-62 -83 86 0
85 -87 0
-61 -87 0
61 -85 87 0
61 -85 -88 0
-61 85 -88 0
61 85 88 0
-61 -85 88 0
-9 -89 0
-10 -89 0
9 10 89 0
9 10 -90 0
-9 -10 -90 0
-9 10 90 0
9 -10 90 0
89 -91 0
-11 -91 0
11 -89 91 0
11 -89 -92 0
-11 89 -92 0
11 89 92 0
-11 -89 92 0
91 -93 0
-12 -93 0
12 -91 93 0
12 -91 -94 0
-12 91 -94 0
12 91 94 0
-12 -91 94 0
93 -95 0
-13 -95 0
13 -93 95 0
13 -93 -96 0
-13 93 -96 0
13 93 96 0
-13 -93 96 0
95 -97 0
-14 -97 0
14 -95 97 0
14 -95 -98 0
-14 95 -98 0
14 95 98 0
-14 -95 98 0
97 -99 0
-15 -99 0
15 -97 99 0
15 -97 -100 0
-15 97 -100 0
15 97 100 0
-15 -97 100 0
99 -101 0
-16 -101 0
16 -99 101 0
16 -99 -102 0
-16 99 -102 0
16 99 102 0
-16 -99 102 0
12 -103 0
9 -103 0
-9 -12 103 0
-9 -12 -104 0
9 12 -104 0
9 -12 104 0
-9 12 104 0
-10 -13 105 0
-13 -103 105 0
-10 -103 105 0
10 13 -105 0
13 103 -105 0
10 103 -105 0
13 -105 -106 0
10 -105 -106 0
103 -105 -106 0
-13 105 106 0
-10 105 106 0
-103 105 106 0
-10 -13 -103 106 0
10 13 103 -106 0
-11 -14 107 0
-14 -105 107 0
-11 -105 107 0
11 14 -107 0
14 105 -107 0
11 105 -107 0
14 -107 -108 0
11 -107 -108 0
105 -107 -108 0
-14 107 108 0
-11 107 108 0
-105 107 108 0
-11 -14 -105 108 0
11 14 105 -108 0
-12 -15 109 0
-15 -107 109 0
-12 -107 109 0
12 15 -109 0
15 107 -109 0
12 107 -109 0
15 -109 -110 0
12 -109 -110 0
107 -109 -110 0
-15 109 110 0
-12 109 110 0
-107 109 110 0
-12 -15 -107 110 0
12 15 107 -110 0
-13 -16 111 0
-16 -109 111 0
-13 -109 111 0
13 16 -111 0
16 109 -111 0
13 109 -111 0
16 -111 -112 0
13 -111 -112 0
109 -111 -112 0
-16 111 112 0
-13 111 112 0
-109 111 112 0
-13 -16 -109 112 0
13 16 109 -112 0
14 -113 0
111 -113 0
-14 -111 113 0
-14 -111 -114 0
14 111 -114 0
-14 111 114 0
14 -111 114 0
15 -115 0
113 -115 0
-15 -113 115 0
-15 -113 -116 0
15 113 -116 0
-15 113 116 0
15 -113 116 0
16 -117 0
115 -117 0
-16 -115 117 0
-16 -115 -118 0
16 115 -118 0
-16 115 118 0
16 -115 118 0
-9 -119 0
-10 -119 0
9 10 119 0
9 10 -120 0
-9 -10 -120 0
-9 10 120 0
9 -10 120 0
119 -121 0
-11 -121 0
11 -119 121 0
11 -119 -122 0
-11 119 -122 0
11 119 122 0
-11 -119 122 0
121 -123 0
-104 -123 0
104 -121 123 0
104 -121 -124 0
-104 121 -124 0
104 121 124 0
-104 -121 124 0
123 -125 0
-106 -125 0
106 -123 125 0
106 -123 -126 0
-106 123 -126 0
106 123 126 0
-106 -123 126 0
125 -127 0
-108 -127 0
108 -125 127 0
108 -125 -128 0
-108 125 -128 0
108 125 128 0
-108 -125 128 0
127 -129 0
-110 -129 0
110 -127 129 0
110 -127 -130 0
-110 127 -130 0
110 127 130 0
-110 -127 130 0
129 -131 0
-112 -131 0
112 -129 131 0
112 -129 -132 0
-112 129 -132 0
112 129 132 0
-112 -129 132 0
131 -133 0
-114 -133 0
114 -131 133 0
114 -131 -134 0
-114 131 -134 0
114 131 134 0
-114 -131 134 0
133 -135 0
-116 -135 0
116 -133 135 0
116 -133 -136 0
-116 133 -136 0
116 133 136 0
-116 -133 136 0
135 -137 0
-118 -137 0
118 -135 137 0
118 -135 -138 0
-118 135 -138 0
118 135 138 0
-118 -135 138 0
137 -139 0
-117 -139 0
117 -137 139 0
117 -137 -140 0
-117 137 -140 0
117 137 140 0
-117 -137 140 0
1 -141 0
9 -141 0
-1 -9 141 0
-1 -9 -142 0
1 9 -142 0
-1 9 142 0
1 -9 142 0
-2 -10 143 0
-2 -141 143 0
-10 -141 143 0
2 10 -143 0
2 141 -143 0
10 141 -143 0
2 -143 -144 0
10 -143 -144 0
141 -143 -144 0
-2 143 144 0
-10 143 144 0
-141 143 144 0
-2 -10 -141 144 0
2 10 141 -144 0
-3 -11 145 0
-3 -143 145 0
-11 -143 145 0
3 11 -145 0
3 143 -145 0
11 143 -145 0
3 -145 -146 0
11 -145 -146 0
143 -145 -146 0
-3 145 146 0
-11 145 146 0
-143 145 146 0
-3 -11 -143 146 0
3 11 143 -146 0
-4 -104 147 0
-4 -145 147 0
-104 -145 147 0
4 104 -147 0
4 145 -147 0
104 145 -147 0
4 -147 -148 0
104 -147 -148 0
145 -147 -148 0
-4 147 148 0
-104 147 148 0
-145 147 148 0
-4 -104 -145 148 0
4 104 145 -148 0
-5 -106 149 0
-5 -147 149 0
-106 -147 149 0
5 106 -149 0
5 147 -149 0
106 147 -149 0
5 -149 -150 0
106 -149 -150 0
147 -149 -150 0
-5 149 150 0
-106 149 150 0
-147 149 150 0
-5 -106 -147 150 0
5 106 147 -150 0
-48 -108 151 0
-48 -149 151 0
-108 -149 151 0
48 108 -151 0
48 149 -151 0
108 149 -151 0
48 -151 -152 0
108 -151 -152 0
149 -151 -152 0
-48 151 152 0
-108 151 152 0
-149 151 152 0
-48 -108 -149 152 0
48 108 149 -152 0
-50 -110 153 0
-50 -151 153 0
-110 -151 153 0
50 110 -153 0
50 151 -153 0
110 151 -153 0
50 -153 -154 0
110 -153 -154 0
151 -153 -154 0
-50 153 154 0
-110 153 154 0
-151 153 154 0
-50 -110 -151 154 0
50 110 151 -154 0
-52 -112 155 0
-52 -153 155 0
-112 -153 155 0
52 112 -155 0
52 153 -155 0
112 153 -155 0
52 -155 -156 0
112 -155 -156 0
153 -155 -156 0
-52 155 156 0
-112 155 156 0
-153 155 156 0
-52 -112 -153 156 0
52 112 153 -156 0
-54 -114 157 0
-54 -155 157 0
-114 -155 157 0
54 114 -157 0
54 155 -157 0
114 155 -157 0
54 -157 -158 0
114 -157 -158 0
155 -157 -158 0
-54 157 158 0
-114 157 158 0
-155 157 158 0
-54 -114 -155 158 0
54 114 155 -158 0
-56 -116 159 0
-56 -157 159 0
-116 -157 159 0
56 116 -159 0
56 157 -159 0
116 157 -159 0
56 -159 -160 0
116 -159 -160 0
157 -159 -160 0
-56 159 160 0
-116 159 160 0
-157 159 160 0
-56 -116 -157 160 0
56 116 157 -160 0
-58 -118 161 0
-58 -159 161 0
-118 -159 161 0
58 118 -161 0
58 159 -161 0
118 159 -161 0
58 -161 -162 0
118 -161 -162 0
159 -161 -162 0
-58 161 162 0
-118 161 162 0
-159 161 162 0
-58 -118 -159 162 0
58 118 159 -162 0
-60 -117 163 0
-60 -161 163 0
-117 -161 163 0
60 117 -163 0
60 161 -163 0
117 161 -163 0
60 -163 -164 0
117 -163 -164 0
161 -163 -164 0
-60 163 164 0
-117 163 164 0
-161 163 164 0
-60 -117 -161 164 0
60 117 161 -164 0
62 -165 0
163 -165 0
-62 -163 165 0
-62 -163 -166 0
62 163 -166 0
-62 163 166 0
62 -163 166 0
61 -167 0
165 -167 0
-61 -165 167 0
-61 -165 -168 0
61 165 -168 0
-61 165 168 0
61 -165 168 0
-142 -169 0
-144 -169 0
-146 -169 0
148 -169 0
150 -169 0
-152 -169 0
-154 -169 0
-156 -169 0
-158 -169 0
-160 -169 0
-162 -169 0
-164 -169 0
-166 -169 0
-167 -169 0
-168 -169 0
142 144 146 -148 -150 152 154 156 158 160 162 164 166 167 168 169 0
169 0
c main::$tmp::return_value_nondet_char!0@1#1 17 18 19 20 21 22 23 24
c symex::nondet1 9 10 11 12 13 14 15 16
c symex::nondet0 1 2 3 4 5 6 7 8
c main::$tmp::return_value_nondet_char$0!0@1#2 9 10 11 12 13 14 15 16
c __CPROVER_rounding_mode!0#1 FALSE FALSE FALSE FALSE FALSE FALSE FALSE FALSE FALSE FALSE FALSE FALSE FALSE FALSE FALSE FALSE FALSE FALSE FALSE FALSE FALSE FALSE FALSE FALSE FALSE FALSE FALSE FALSE FALSE FALSE FALSE FALSE
c main::$tmp::return_value_nondet_char$0!0@1#1 25 26 27 28 29 30 31 32
c __CPROVER_memory_leak#1 FALSE FALSE FALSE FALSE FALSE FALSE FALSE FALSE FALSE FALSE FALSE FALSE FALSE FALSE FALSE FALSE FALSE FALSE FALSE FALSE FALSE FALSE FALSE FALSE FALSE FALSE FALSE FALSE FALSE FALSE FALSE FALSE FALSE FALSE FALSE FALSE FALSE FALSE FALSE FALSE FALSE FALSE FALSE FALSE FALSE FALSE FALSE FALSE FALSE FALSE FALSE FALSE FALSE FALSE FALSE FALSE FALSE FALSE FALSE FALSE FALSE FALSE FALSE FALSE
c __CPROVER_max_malloc_size#1 FALSE FALSE FALSE FALSE FALSE FALSE FALSE FALSE FALSE FALSE FALSE FALSE FALSE FALSE FALSE FALSE FALSE FALSE FALSE FALSE FALSE FALSE FALSE FALSE FALSE FALSE FALSE FALSE FALSE FALSE FALSE FALSE FALSE FALSE FALSE FALSE FALSE FALSE FALSE FALSE FALSE FALSE FALSE FALSE FALSE FALSE FALSE FALSE FALSE FALSE FALSE FALSE FALSE FALSE FALSE TRUE FALSE FALSE FALSE FALSE FALSE FALSE FALSE FALSE
c __CPROVER_deallocated#1 FALSE FALSE FALSE FALSE FALSE FALSE FALSE FALSE FALSE FALSE FALSE FALSE FALSE FALSE FALSE FALSE FALSE FALSE FALSE FALSE FALSE FALSE FALSE FALSE FALSE FALSE FALSE FALSE FALSE FALSE FALSE FALSE FALSE FALSE FALSE FALSE FALSE FALSE FALSE FALSE FALSE FALSE FALSE FALSE FALSE FALSE FALSE FALSE FALSE FALSE FALSE FALSE FALSE FALSE FALSE FALSE FALSE FALSE FALSE FALSE FALSE FALSE FALSE FALSE
c main::$tmp::return_value_nondet_char!0@1#2 1 2 3 4 5 6 7 8
c __CPROVER_dead_object#1 FALSE FALSE FALSE FALSE FALSE FALSE FALSE FALSE FALSE FALSE FALSE FALSE FALSE FALSE FALSE FALSE FALSE FALSE FALSE FALSE FALSE FALSE FALSE FALSE FALSE FALSE FALSE FALSE FALSE FALSE FALSE FALSE FALSE FALSE FALSE FALSE FALSE FALSE FALSE FALSE FALSE FALSE FALSE FALSE FALSE FALSE FALSE FALSE FALSE FALSE FALSE FALSE FALSE FALSE FALSE FALSE FALSE FALSE FALSE FALSE FALSE FALSE FALSE FALSE
